computational_data/solutions/ER_n40_p020_s8.sol
Optimal - objective value 13.00000000
     13 r_13                        1                       1
     17 r_17                        1                       1
     21 r_21                        1                       1
     29 r_29                        1                       1
     30 r_30                        1                       1
     31 r_31                        1                       1
     40 b_0                         1                       1
     44 b_4                         1                       1
     48 b_8                         1                       1
     56 b_16                        1                       1
     58 b_18                        1                       1
     59 b_19                        1                       1
     66 b_26                        1                       1
